NAME : dataset8.tsp.bidireccional.tour
TYPE : TOUR
DIMENSION : 9
SOLUTION: 12669.28907063663
TOUR_SECTION
4,8,7,2,5,1,3,6,4
1168.0902476644883 - 4, 8
969.2449012271527 - 8, 7
1926.337616027733 - 7, 2
996.9452161081387 - 2, 5
767.3911344422365 - 5, 1
1571.6850765075742 - 1, 3
2268.806499558612 - 3, 6
3000.788379100695 - 6, 4
EOF